c instance by G2
c solution = 1100100000100
c Known solution cost is 643 
p cnf 13 30
w 2 35 96 18 79 46 33 60 63 46 33 49 83
-10 -7 3 0
8 6 -9 0
7 9 5 0
-12 13 -3 0
3 -13 11 0
7 9 -10 0
-5 11 -8 0
4 3 -8 0
1 6 -3 0
4 9 -3 0
7 -2 -10 0
-11 2 -9 0
5 8 4 0
-8 -3 -12 0
12 7 2 0
8 -5 2 0
8 4 -12 0
-4 3 6 0
-9 -12 3 0
10 -9 8 0
-5 -7 4 0
-13 6 8 0
-12 -3 5 0
13 6 -12 0
6 -5 -4 0
4 1 9 0
6 3 11 0
-11 -10 4 0
-11 -12 -1 0
7 3 -6 0
